65
Time limit set to 60 seconds
Running CP solver
/home/omastto1/General-Optimization-Solver/src/solvers/mmrcpsp.py:42(stream:108:6): Warning: Cumulative expression 'pulse': height is zero, expression is zero everywhere.
                                                                                               VarCumulAtom_149 = pulse(task_0_mode_0, 0)
/home/omastto1/General-Optimization-Solver/src/solvers/mmrcpsp.py:42(stream:108:1252): Warning: Cumulative expression 'pulse': height is zero, expression is zero everywhere.
                                                                                                  VarCumulAtom_198 = pulse(task_17_mode_0, 0)
/home/omastto1/General-Optimization-Solver/src/solvers/mmrcpsp.py:42(stream:109:6): Warning: Cumulative expression 'pulse': height is zero, expression is zero everywhere.
                                                                                               VarCumulAtom_202 = pulse(task_0_mode_0, 0)
/home/omastto1/General-Optimization-Solver/src/solvers/mmrcpsp.py:42(stream:109:1253): Warning: Cumulative expression 'pulse': height is zero, expression is zero everywhere.
                                                                                                  VarCumulAtom_251 = pulse(task_17_mode_0, 0)
 ! --------------------------------------------------- CP Optimizer 20.1.0.0 --
 ! Minimization problem - 69 variables, 51 constraints
 ! TimeLimit            = 60
 ! Workers              = 14
 ! LogVerbosity         = Terse
 ! Initial process time : 0.01s (0.01s extraction + 0.00s propagation)
 !  . Log search space  : 160.0 (before), 160.0 (after)
 !  . Memory usage      : 754.6 kB (before), 754.6 kB (after)
 ! Using parallel search with 14 workers.
 ! ----------------------------------------------------------------------------
 !          Best Branches  Non-fixed    W       Branch decision
                        0         69                 -
 + New bound is 23
 ! Using iterative diving.
 ! Using temporal relaxation.
 *            40       46  0.46s        1      (gap is 42.50%)
 *            38      112  0.46s        1      (gap is 39.47%)
 *            37      152  0.46s        1      (gap is 37.84%)
 *            36      192  0.46s        1      (gap is 36.11%)
 *            33      232  0.46s        1      (gap is 30.30%)
 *            32      272  0.46s        1      (gap is 28.12%)
 *            31      328  0.46s        1      (gap is 25.81%)
 *            30      394  0.46s        1      (gap is 23.33%)
 *            29      411  0.46s        1      (gap is 20.69%)
 *            28      433  0.46s        1      (gap is 17.86%)
 *            27      449  0.46s        1      (gap is 14.81%)
 *            26      467  0.46s        1      (gap is 11.54%)
 ! Using failure-directed search.
 *            23      899  0.46s        1      (gap is 0.00%)
 ! ----------------------------------------------------------------------------
 ! Search completed, 13 solutions found.
 ! Best objective         : 23 (optimal - effective tol. is 0)
 ! Best bound             : 23
 ! ----------------------------------------------------------------------------
 ! Number of branches     : 65442
 ! Number of fails        : 4309
 ! Total memory usage     : 9.7 MB (9.6 MB CP Optimizer + 0.1 MB Concert)
 ! Time spent in solve    : 0.49s (0.48s engine + 0.01s extraction)
 ! Search speed (br. / s) : 139238.3
 ! ----------------------------------------------------------------------------
task_0: (start=0, end=0, size=0, length=0)
Task 0 is scheduled in mode 0 from 0 to 0
task_1: (start=0, end=9, size=9, length=9)
Task 1 is scheduled in mode 0 from 0 to 9
task_2: (start=0, end=6, size=6, length=6)
Task 2 is scheduled in mode 1 from 0 to 6
task_3: (start=0, end=4, size=4, length=4)
Task 3 is scheduled in mode 0 from 0 to 4
task_4: (start=4, end=6, size=2, length=2)
Task 4 is scheduled in mode 0 from 4 to 6
task_5: (start=6, end=11, size=5, length=5)
Task 5 is scheduled in mode 1 from 6 to 11
task_6: (start=6, end=8, size=2, length=2)
Task 6 is scheduled in mode 0 from 6 to 8
task_7: (start=8, end=17, size=9, length=9)
Task 7 is scheduled in mode 2 from 8 to 17
task_8: (start=9, end=15, size=6, length=6)
Task 8 is scheduled in mode 1 from 9 to 15
task_9: (start=15, end=19, size=4, length=4)
Task 9 is scheduled in mode 1 from 15 to 19
task_10: (start=8, end=16, size=8, length=8)
Task 10 is scheduled in mode 2 from 8 to 16
task_11: (start=17, end=18, size=1, length=1)
Task 11 is scheduled in mode 0 from 17 to 18
task_12: (start=11, end=15, size=4, length=4)
Task 12 is scheduled in mode 0 from 11 to 15
task_13: (start=15, end=21, size=6, length=6)
Task 13 is scheduled in mode 1 from 15 to 21
task_14: (start=21, end=23, size=2, length=2)
Task 14 is scheduled in mode 0 from 21 to 23
task_15: (start=19, end=23, size=4, length=4)
Task 15 is scheduled in mode 1 from 19 to 23
task_16: (start=18, end=23, size=5, length=5)
Task 16 is scheduled in mode 0 from 18 to 23
task_17: (start=23, end=23, size=0, length=0)
Task 17 is scheduled in mode 0 from 23 to 23
Optimal solution found
Objective value: 23
Solution is optimal.
